
50
11525

683 718
92 482
618 214
842 618
835 49
516 450
632 557
370 3
529 649
108 89
683 650
601 342
282 30
379 1000
737 65
444 157
960 506
972 246
839 531
92 475
76 577
289 544
362 295
705 212
827 695
563 429
640 521
574 916
35 9
527 278
214 564
417 54
9 754
656 402
911 317
69 195
581 967
24 47
352 822
160 705
861 898
729 702
897 347
218 550
719 922
700 41
511 850
917 674
625 197
283 967
